(set-info :origin "driver benchmark extracted from Microsoft SDV")
(set-logic HORN)
(declare-fun Proc24 (Int Int Int Bool Int) Bool)
(declare-fun Proc5 (Int Int Int Bool Int Int Int) Bool)
(declare-fun Proc7 (Int Int Int Bool) Bool)
(declare-fun Proc13 (Int Int Int Bool Int) Bool)
(declare-fun Proc8 (Int Int Int Bool Int Int) Bool)
(declare-fun Proc2 (Int Int Int Bool Int Int Int) Bool)
(declare-fun Proc23 (Int Int Int Bool Int) Bool)
(declare-fun Proc11 (Int Int Int Bool Int Int Int Bool Int) Bool)
(declare-fun Proc21 (Int Int Int Bool Int) Bool)
(declare-fun Proc31 (Int Int Int Bool Int Int) Bool)
(declare-fun Proc33 (Int Int Int Bool Int Bool Int Int Int) Bool)
(declare-fun Proc28 (Int Int Int Bool Int Int Int Int Int) Bool)
(declare-fun Proc22 (Int Int Int Bool Int) Bool)
(declare-fun Proc27 (Int Int Int Bool Int Int) Bool)
(declare-fun Proc26 (Int Int Int Bool) Bool)
(declare-fun Proc25 (Int Int Int Bool Int) Bool)
(declare-fun Proc14 (Int Int Int Bool Int) Bool)
(declare-fun Proc4 (Int Int Int Bool Int Int Int) Bool)
(declare-fun Proc9 (Int Int Int Bool Int) Bool)
(declare-fun Proc20 (Int Int Int Bool Int) Bool)
(declare-fun Proc16 (Int Int Int Bool Int) Bool)
(declare-fun Proc0 (Int Int Int Bool) Bool)
(declare-fun Proc10 (Int Int Int Bool Int Int) Bool)
(declare-fun Proc3 (Int Int Int Bool Int Int) Bool)
(declare-fun Proc32 (Int Int Int Bool) Bool)
(declare-fun Proc19 (Int Int Int Bool Int) Bool)
(declare-fun Proc18 (Int Int Int Bool Int) Bool)
(declare-fun Proc12 (Int Int Int Bool Int) Bool)
(declare-fun Proc30 (Int Int Int Bool) Bool)
(declare-fun Proc17 (Int Int Int Bool Int) Bool)
(declare-fun Proc15 (Int Int Int Bool Int) Bool)
(declare-fun Proc6 (Int Int Int Bool) Bool)
(declare-fun Proc1 (Int Int Int Bool Int Int) Bool)
(declare-fun Proc29 (Int Int Int Bool) Bool)
(assert (forall ((A Int) (B Int) (C Int) (D Int) (E Int) (F Int) (G Bool))
  (let ((a!1 (not (or (not G)
                      (not (Proc0 F E D G))
                      (= C 0)
                      (not (Proc1 F E D G C 0))
                      (not (= B 0))))))
    (=> a!1 (Proc2 F E D G A C B)))))
(assert (forall ((A Int)
         (B Int)
         (C Int)
         (D Int)
         (E Int)
         (F Int)
         (G Bool)
         (H Int)
         (I Int)
         (J Int))
  (let ((a!1 (and (not (<= H (+ 1 J))) (not (<= H I)))))
  (let ((a!2 (or (not G)
                 (not (= J I))
                 (not a!1)
                 (not (Proc3 H F E G J D))
                 (not (and (= C H) (= B D))))))
    (=> (not a!2) (Proc4 I F E G A C B))))))
(assert (forall ((A Int) (B Int) (C Int) (D Int) (E Int) (G Bool))
  (let ((a!1 (not (or (not G) (not (= E 1))))))
    (=> a!1 (Proc3 D C B G A E)))))
(assert (forall ((A Int)
         (B Int)
         (C Int)
         (D Int)
         (E Int)
         (F Int)
         (G Bool)
         (H Int)
         (I Int)
         (J Int)
         (K Int))
  (let ((a!1 (or (not (= E 1))
                 (not (and (= D F) (= C E)))
                 (not (and (= B D) (= A C)))))
        (a!2 (or (= E 1)
                 (not (and (= D F) (= C E)))
                 (not (and (= B D) (= A C)))))
        (a!3 (or (not (= K 0))
                 (not (and (= D J) (= C I)))
                 (not (and (= B D) (= A C))))))
  (let ((a!4 (and (or (= K 0) (not (Proc4 J K I G H F E)) (and a!1 a!2)) a!3)))
    (=> (not (or (not G) a!4)) (Proc5 J K I G H B A))))))
(assert (forall ((A Int) (B Int) (C Int) (G Bool)) (=> G (Proc6 C B A G))))
(assert (forall ((A Int) (B Int) (C Int) (G Bool)) (=> G (Proc7 C B A G))))
(assert (forall ((A Int) (B Int) (C Int) (D Int) (E Int) (G Bool))
  (let ((a!1 (or (not G) (not (and (= E 0) (= D 0))))))
    (=> (not a!1) (Proc8 C B A G E D)))))
(assert (forall ((A Int)
         (B Int)
         (C Int)
         (D Int)
         (E Int)
         (F Int)
         (G Bool)
         (H Int)
         (I Int)
         (J Int)
         (K Int)
         (L Bool)
         (M Bool)
         (N Int)
         (O Int)
         (P Int)
         (Q Int)
         (R Int)
         (S Bool))
  (let ((a!1 (not (and (not (<= R 0)) (Proc9 R Q P S O))))
        (a!2 (not (and (= E H) (= D N) (= C I) (= L M) (= B J)))))
  (let ((a!3 (or (= I 0) (not (and (= H F) (not M))) a!2))
        (a!4 (or (not (and (= I 0) (= G S))) (not (and (= H A) (= M G))) a!2)))
  (let ((a!5 (and (or (= I 1) (and a!3 a!4)) (or (not (= I 1)) (and a!3 a!4)))))
  (let ((a!6 (not (or (not S)
                      a!1
                      (not (Proc8 O Q P S N K))
                      (not (Proc7 O N K S))
                      (not (Proc6 O N K S))
                      (not (Proc10 O N K S J I))
                      a!5))))
    (=> a!6 (Proc11 R Q P S E D C L B))))))))
(assert (forall ((A Int) (B Int) (C Int) (D Int) (G Bool))
  (let ((a!1 (not (or (not G) (not (= D 0))))))
    (=> a!1 (Proc12 C B A G D)))))
(assert (forall ((A Int) (B Int) (C Int) (D Int) (G Bool))
  (let ((a!1 (not (or (not G) (not (= D 0))))))
    (=> a!1 (Proc13 C B A G D)))))
(assert (forall ((A Int) (B Int) (C Int) (D Int) (G Bool))
  (let ((a!1 (not (or (not G) (not (= D 1))))))
    (=> a!1 (Proc14 C B A G D)))))
(assert (forall ((A Int) (B Int) (C Int) (D Int) (G Bool))
  (let ((a!1 (not (or (not G) (not (= D 0))))))
    (=> a!1 (Proc15 C B A G D)))))
(assert (forall ((A Int) (B Int) (C Int) (D Int) (G Bool))
  (let ((a!1 (not (or (not G) (not (= D 1))))))
    (=> a!1 (Proc16 C B A G D)))))
(assert (forall ((A Int) (B Int) (C Int) (D Int) (G Bool))
  (let ((a!1 (not (or (not G) (not (= D 0))))))
    (=> a!1 (Proc17 C B A G D)))))
(assert (forall ((A Int) (B Int) (C Int) (D Int) (G Bool))
  (let ((a!1 (not (or (not G) (not (= D 0))))))
    (=> a!1 (Proc18 C B A G D)))))
(assert (forall ((A Int) (B Int) (C Int) (D Int) (G Bool))
  (let ((a!1 (not (or (not G) (not (= D 0))))))
    (=> a!1 (Proc19 C B A G D)))))
(assert (forall ((A Int) (B Int) (C Int) (D Int) (G Bool))
  (let ((a!1 (not (or (not G) (not (= D 0))))))
    (=> a!1 (Proc20 C B A G D)))))
(assert (forall ((A Int) (B Int) (C Int) (D Int) (G Bool))
  (let ((a!1 (not (or (not G) (not (= D 0))))))
    (=> a!1 (Proc21 C B A G D)))))
(assert (forall ((A Int) (B Int) (C Int) (D Int) (G Bool))
  (let ((a!1 (not (or (not G) (not (= D 0))))))
    (=> a!1 (Proc22 C B A G D)))))
(assert (forall ((A Int) (B Int) (C Int) (D Int) (E Int) (G Bool))
  (let ((a!1 (or (not G) (not (= E (- 1073741823))) (not (= D E)))))
    (=> (not a!1) (Proc23 C B A G D)))))
(assert (forall ((A Int) (B Int) (C Int) (D Int) (E Int) (G Bool))
  (=> G (Proc1 E D C G B A))))
(assert (forall ((A Int) (B Int) (C Int) (D Int) (G Bool))
  (let ((a!1 (not (or (not G) (not (= D 0))))))
    (=> a!1 (Proc24 C B A G D)))))
(assert (forall ((A Int)
         (B Int)
         (C Int)
         (D Int)
         (E Int)
         (F Int)
         (G Bool)
         (H Int)
         (I Int)
         (J Int)
         (K Int)
         (N Int)
         (O Int)
         (P Int)
         (Q Int)
         (R Int)
         (T Int)
         (U Int)
         (V Int)
         (W Int)
         (X Int)
         (Y Int)
         (Z Int)
         (A1 Int)
         (B1 Int))
  (let ((a!1 (not (and (= N P) (= K Q) (= J O))))
        (a!3 (and (not (<= H (+ 1 I))) (not (<= H A1)))))
  (let ((a!2 (or (not (and (= T A1) (= R Y)))
                 (not (Proc27 T Z R G U B1))
                 (= B1 0)
                 (not (= Q T))
                 (not (and (= P U) (= O R)))
                 a!1))
        (a!4 (or (not (and (= E 1) (= Q F) (= P D) (= O E))) a!1))
        (a!5 (or (= E 1)
                 (not (and (= T F) (= R E)))
                 (not (Proc27 T Z R G U B1))
                 (= B1 0)
                 (not (= Q T))
                 (not (and (= P U) (= O R)))
                 a!1)))
  (let ((a!6 (and a!2
                  (or (not (= I A1))
                      (not a!3)
                      (not (Proc5 H Z Y G I F E))
                      (and a!4 a!5)))))
  (let ((a!7 (and (or (= X 0) (not (Proc2 A1 Z Y G W B1 V)) (not (= U V)) a!6)
                  (or (not (Proc23 A1 Z Y G C)) (not (= U C)) a!6)
                  (or (not (Proc23 A1 Z Y G B)) (not (= U B)) a!6)
                  (or (= X 0) (not (Proc23 A1 Z Y G A)) (not (= U A)) a!6))))
  (let ((a!8 (not (or (not G)
                      (= B1 0)
                      (not (Proc25 A1 Z Y G B1))
                      (= X 0)
                      (not (Proc26 A1 Z Y G))
                      a!7))))
    (=> a!8 (Proc28 A1 Z Y G W B1 N K J)))))))))
(assert (forall ((A Int) (B Int) (C Int) (D Int) (E Int) (F Int) (G Bool))
  (let ((a!1 (not (or (not G)
                      (not (Proc29 F E D G))
                      (not (Proc23 F E D G C))
                      (not (Proc30 F E D G))))))
    (=> a!1 (Proc31 F E D G B A)))))
(assert (forall ((A Int) (B Int) (C Int) (D Int) (G Bool))
  (=> (not (or (not G) (= D 0))) (Proc25 C B A G D))))
(assert (forall ((A Int) (B Int) (C Int) (G Bool)) (=> G (Proc0 C B A G))))
(assert (forall ((A Int)
         (B Int)
         (C Int)
         (D Int)
         (E Int)
         (F Int)
         (G Bool)
         (H Int)
         (I Int)
         (J Int)
         (K Int)
         (N Int)
         (O Int)
         (P Int)
         (Q Int)
         (R Int)
         (T Int)
         (U Int)
         (V Int)
         (W Int)
         (X Int)
         (Y Int)
         (Z Int)
         (A1 Int)
         (B1 Int)
         (C1 Int)
         (D1 Int))
  (let ((a!1 (or (not (= H 1))
                 (not (and (= F H) (= E I)))
                 (not (and (= D E) (= C F)))))
        (a!2 (or (= H 1)
                 (not (and (= F H) (= E I)))
                 (not (and (= D E) (= C F)))))
        (a!3 (or (not (= A1 0))
                 (not (and (= F B1) (= E D1)))
                 (not (and (= D E) (= C F)))))
        (a!4 (or (= Z 0)
                 (not (Proc32 D1 C1 B1 G))
                 (not (Proc31 D1 C1 B1 G B A))
                 (not (and (= F B1) (= E D1)))
                 (not (and (= D E) (= C F)))))
        (a!5 (or (not (= Z 0))
                 (not (and (= F B1) (= E D1)))
                 (not (and (= D E) (= C F)))))
        (a!6 (or (not (and (= F B1) (= E D1))) (not (and (= D E) (= C F))))))
  (let ((a!7 (and (or (= A1 0)
                      (not (Proc32 D1 C1 B1 G))
                      (not (Proc28 D1 C1 B1 G N K J I H))
                      (and a!1 a!2))
                  a!3
                  a!4
                  a!5
                  a!6)))
  (let ((a!8 (not (or (not G)
                      (not (Proc14 D1 C1 B1 G A1))
                      (not (Proc21 D1 C1 B1 G Z))
                      (not (Proc15 D1 C1 B1 G Y))
                      (not (Proc20 D1 C1 B1 G X))
                      (not (Proc13 D1 C1 B1 G W))
                      (not (Proc17 D1 C1 B1 G V))
                      (not (Proc24 D1 C1 B1 G U))
                      (not (Proc22 D1 C1 B1 G T))
                      (not (Proc12 D1 C1 B1 G R))
                      (not (Proc18 D1 C1 B1 G Q))
                      (not (Proc19 D1 C1 B1 G P))
                      (not (Proc16 D1 C1 B1 G O))
                      a!7))))
    (=> a!8 (Proc10 D1 C1 B1 G D C)))))))
(assert (forall ((A Int) (B Int) (C Int) (G Bool)) (=> G (Proc26 C B A G))))
(assert (forall ((A Int) (B Int) (C Int) (D Int) (E Int) (G Bool))
  (=> G (Proc27 E D C G B A))))
(assert (forall ((A Int) (B Int) (C Int) (G Bool)) (=> G (Proc32 C B A G))))
(assert (forall ((A Int) (B Int) (C Int) (G Bool)) (=> G (Proc29 C B A G))))
(assert (forall ((A Int) (B Int) (C Int) (G Bool)) (=> G (Proc30 C B A G))))
(assert (forall ((A Int)
         (B Int)
         (C Int)
         (D Int)
         (E Int)
         (F Int)
         (G Bool)
         (H Int)
         (I Int)
         (J Int)
         (K Int)
         (N Int)
         (O Int)
         (P Int)
         (Q Int)
         (R Int)
         (T Int)
         (U Int)
         (V Int)
         (W Int)
         (X Int)
         (Y Int)
         (Z Int)
         (A1 Int)
         (B1 Int)
         (C1 Int)
         (D1 Int)
         (E1 Int)
         (F1 Int)
         (G1 Int)
         (H1 Int)
         (I1 Int)
         (J1 Int)
         (K1 Int)
         (L1 Int)
         (M1 Int)
         (N1 Int)
         (O1 Int)
         (P1 Int)
         (Q1 Int)
         (R1 Int)
         (S1 Int)
         (T1 Int)
         (U1 Int)
         (V1 Int)
         (W1 Int)
         (X1 Int)
         (Y1 Int)
         (Z1 Int)
         (A2 Int)
         (B2 Int)
         (C2 Int)
         (D2 Int)
         (E2 Int)
         (F2 Int))
  (let ((a!1 (and (not (<= D2 (+ 16 F2))) (not (<= D2 E2))))
        (a!2 (and (= C2 D2)
                  (not (<= B2 (+ 240 C2)))
                  (not (<= B2 D2))
                  (= A2 B2)
                  (not (<= Z1 (+ 4 A2)))
                  (not (<= Z1 B2))
                  (= Y1 Z1)
                  (not (<= X1 (+ 332 Y1)))))
        (a!3 (and (not (<= X1 Z1))
                  (= W1 X1)
                  (not (<= V1 (+ 4 W1)))
                  (not (<= V1 X1))
                  (= U1 V1)
                  (not (<= T1 (+ 536 U1)))
                  (not (<= T1 V1))
                  (= S1 T1)
                  (not (<= R1 (+ 240 S1)))
                  (not (<= R1 T1))
                  (= Q1 R1)
                  (not (<= P1 (+ 240 Q1)))
                  (not (<= P1 R1))
                  (= O1 P1)
                  (not (<= N1 (+ 240 O1)))
                  (not (<= N1 P1))
                  (= M1 N1)
                  (not (<= L1 (+ 4 M1)))
                  (not (<= L1 N1))
                  (= K1 L1)
                  (not (<= J1 (+ 536 K1)))
                  (not (<= J1 L1))
                  (= I1 J1)
                  (not (<= H1 (+ 332 I1)))
                  (not (<= H1 J1))
                  (= G1 H1)
                  (not (<= F1 (+ 240 G1)))
                  (not (<= F1 H1))
                  (= E1 F1)
                  (not (<= D1 (+ 240 E1)))
                  (not (<= D1 F1))
                  (= C1 D1)
                  (not (<= B1 (+ 332 C1)))
                  (not (<= B1 D1))
                  (= A1 B1)
                  (not (<= Z (+ 4 A1)))
                  (not (<= Z B1))
                  (= Y Z)
                  (not (<= X (+ 240 Y)))
                  (not (<= X Z))
                  (= W X)
                  (not (<= V (+ 240 W)))
                  (not (<= V X))
                  (= U V)
                  (not (<= T (+ 240 U)))
                  (not (<= T V))
                  (= R T)
                  (not (<= Q (+ 240 R)))
                  (not (<= Q T))
                  (= P Q)
                  (not (<= O (+ 240 P)))
                  (not (<= O Q))
                  (= N O)
                  (not (<= K (+ 40 N)))
                  (not (<= K O))
                  (= J K)
                  (not (<= I (+ 332 J)))
                  (not (<= I K))
                  (= H I)
                  (not (<= F (+ 4 H)))
                  (not (<= F I))
                  (= E F)
                  (not (<= D (+ 40 E)))
                  (not (<= D F)))))
  (let ((a!4 (not (or (not G)
                      (not (= F2 E2))
                      (not a!1)
                      (not a!2)
                      (not a!3)
                      (not (= C D))))))
    (=> a!4 (Proc9 E2 B A G C))))))
(assert (forall ((A Int)
         (B Int)
         (C Int)
         (D Int)
         (E Int)
         (F Int)
         (G Bool)
         (H Int)
         (I Int)
         (J Int)
         (K Int)
         (L Bool)
         (M Bool)
         (N Int))
  (let ((a!1 (or (not M) (not (and (Proc11 N K J true I H F L E) (not L))))))
    (=> (not a!1) (Proc33 N K J M D G C B A)))))
(assert (let ((a!1 (exists ((V0 Int)
                    (V1 Int)
                    (V2 Int)
                    (V3 Bool)
                    (V4 Int)
                    (V5 Bool)
                    (V6 Int)
                    (V7 Int)
                    (V8 Int))
             (not (=> (and (Proc33 V0 V1 V2 V3 V4 V5 V6 V7 V8) (not false))
                      false)))))
  (not a!1)))

(check-sat)
